MP/SupplyChain/SupplyChain.lp
\ This file has been generated by DOcplex
\ ENCODING=ISO-8859-1
\Problem name: SupplyChain

Minimize
 obj:
Subject To
 c1: X_production_Product1_Plant1 <= 500
 c2: X_production_Product1_Plant2 <= 400
 c3: X_production_Product2_Plant1 <= 300
 c4: X_production_Product2_Plant2 <= 600
 c5: X_transportation_Product1_Plant1_Customer1
     + X_transportation_Product1_Plant2_Customer1 >= 200
 c6: X_transportation_Product1_Plant1_Customer2
     + X_transportation_Product1_Plant2_Customer2 >= 500
 c7: X_transportation_Product2_Plant1_Customer1
     + X_transportation_Product2_Plant2_Customer1 >= 300
 c8: X_transportation_Product2_Plant1_Customer2
     + X_transportation_Product2_Plant2_Customer2 >= 400
 c9: X_transportation_Product1_Plant1_Customer1
     + X_transportation_Product1_Plant1_Customer2 - X_production_Product1_Plant1
      <= 0
 c10: X_transportation_Product1_Plant2_Customer1
      + X_transportation_Product1_Plant2_Customer2
      - X_production_Product1_Plant2 <= 0
 c11: X_transportation_Product2_Plant1_Customer1
      + X_transportation_Product2_Plant1_Customer2
      - X_production_Product2_Plant1 <= 0
 c12: X_transportation_Product2_Plant2_Customer1
      + X_transportation_Product2_Plant2_Customer2
      - X_production_Product2_Plant2 <= 0

Bounds
End
