MP/SupplyChain/SupplyChain.mps
* ENCODING=ISO-8859-1
NAME          
ROWS
 N  obj1                                      
 L  c1                                        
 L  c2                                        
 L  c3                                        
 L  c4                                        
 G  c5                                        
 G  c6                                        
 G  c7                                        
 G  c8                                        
 L  c9                                        
 L  c10                                       
 L  c11                                       
 L  c12                                       
COLUMNS
    X_production_Product1_Plant1                c1                                                                1
    X_production_Product1_Plant1                c9                                                               -1
    X_production_Product1_Plant2                c2                                                                1
    X_production_Product1_Plant2                c10                                                              -1
    X_production_Product2_Plant1                c3                                                                1
    X_production_Product2_Plant1                c11                                                              -1
    X_production_Product2_Plant2                c4                                                                1
    X_production_Product2_Plant2                c12                                                              -1
    X_transportation_Product1_Plant1_Customer1  c5                                                                1
    X_transportation_Product1_Plant1_Customer1  c9                                                                1
    X_transportation_Product1_Plant1_Customer2  c6                                                                1
    X_transportation_Product1_Plant1_Customer2  c9                                                                1
    X_transportation_Product1_Plant2_Customer1  c5                                                                1
    X_transportation_Product1_Plant2_Customer1  c10                                                               1
    X_transportation_Product1_Plant2_Customer2  c6                                                                1
    X_transportation_Product1_Plant2_Customer2  c10                                                               1
    X_transportation_Product2_Plant1_Customer1  c7                                                                1
    X_transportation_Product2_Plant1_Customer1  c11                                                               1
    X_transportation_Product2_Plant1_Customer2  c8                                                                1
    X_transportation_Product2_Plant1_Customer2  c11                                                               1
    X_transportation_Product2_Plant2_Customer1  c7                                                                1
    X_transportation_Product2_Plant2_Customer1  c12                                                               1
    X_transportation_Product2_Plant2_Customer2  c8                                                                1
    X_transportation_Product2_Plant2_Customer2  c12                                                               1
RHS
    rhs                                         c1                                                              500
    rhs                                         c2                                                              400
    rhs                                         c3                                                              300
    rhs                                         c4                                                              600
    rhs                                         c5                                                              200
    rhs                                         c6                                                              500
    rhs                                         c7                                                              300
    rhs                                         c8                                                              400
ENDATA
